NAME: Random_85_1
ELLAPSED_TIME_(ms): 1
TOUR_SIZE: 2423.544
TOUR_SECTION
0
37
25
51
44
21
33
35
82
47
76
20
57
24
78
61
55
6
11
31
5
7
4
64
28
40
22
9
83
2
32
68
71
63
81
1
45
66
19
59
13
14
52
27
30
26
12
34
54
75
70
73
8
17
49
42
10
84
74
36
79
38
15
58
53
72
43
56
39
23
3
80
77
48
46
62
29
18
41
65
50
60
16
67
69
0
EOF
